; benchmark generated from python API
(set-info :status unknown)
(declare-datatypes ((IntState 0)) (((Mk1 (val1 Int)) (Mk2 (val2 Int)))))
 (declare-fun c_main_~n~22 () Int)
(declare-fun c_main_~f1~22 () Int)
(declare-fun |c_main_#t~ret12| () Int)
(declare-fun |c_main_#t~short13| () Bool)
(assert
 (let (($x11 (<= c_main_~n~22 2)))
 (let (($x163 (exists ((v_nnf_35_st IntState) (val!140 Int) )(exists ((v_nnf_34_st IntState) (val!141 Int) )(let (($x11 (<= c_main_~n~22 2)))
 (let (($x166 (<= (+ c_main_~f1~22 (* 2 (val2 v_nnf_35_st)) (* 2 (val2 v_nnf_34_st)) 1) |c_main_#t~ret12|)))
 (let (($x173 (and $x166 (<= c_main_~f1~22 (val2 v_nnf_35_st)) (<= (val2 v_nnf_35_st) (val2 v_nnf_34_st)) $x11)))
 (let (($x52 (not (= v_nnf_34_st (Mk1 val!141)))))
 (let (($x42 (not (= v_nnf_35_st (Mk1 val!140)))))
 (and $x42 $x52 $x173)))))))
 )
 ))
 (let (($x26 (exists ((v_nnf_35 Int) )(exists ((v_nnf_34 Int) )(let (($x11 (<= c_main_~n~22 2)))
 (let (($x73 (<= (+ c_main_~f1~22 (* 2 v_nnf_35) (* 2 v_nnf_34) 1) |c_main_#t~ret12|)))
 (and $x73 (<= c_main_~f1~22 v_nnf_35) (<= v_nnf_35 v_nnf_34) $x11))))
 )
 ))
 (let (($x40 (= |c_main_#t~short13| (= |c_main_#t~ret12| c_main_~n~22))))
 (and (and $x40 $x26) (not (and $x163 $x11))))))))
(check-sat)
